
ASes= { 1, 2, 3, 4, 5, 6, 7, 8, 9, 10, 11 } ;


Objects= { 1, 2, 3, 4, 5, 6, 7, 8, 9, 10, 11, 12, 13, 14, 15, 16, 17, 18, 19, 20, 21, 22, 23, 24, 25, 26, 27, 28, 29, 30, 31, 32, 33, 34, 35, 36, 37, 38, 39, 40, 41, 42, 43, 44, 45, 46, 47, 48, 49, 50, 51, 52, 53, 54, 55, 56, 57, 58, 59, 60, 61, 62, 63, 64, 65, 66, 67, 68, 69, 70, 71, 72, 73, 74, 75, 76, 77, 78, 79, 80, 81, 82, 83, 84, 85, 86, 87, 88, 89, 90, 91, 92, 93, 94, 95, 96, 97, 98, 99, 100 } ;


QualityLevels= { 0, 1, 2, 3, 4, 5 } ;

Arcs = {<2,1,490000>, <1,2,490000>, <11,1,490000>, <1,11,490000>, <11,2,490000>, <2,11,490000>, <11,10,490000>, <10,11,490000>, <3,2,490000>, <2,3,490000>, <4,3,490000>, <3,4,490000>, <5,4,490000>, <4,5,490000>, <6,5,490000>, <5,6,490000>, <7,6,490000>, <6,7,490000>, <8,4,490000>, <4,8,490000>, <8,7,490000>, <7,8,490000>, <9,3,490000>, <3,9,490000>, <9,8,490000>, <8,9,490000>, <10,9,490000>, <9,10,490000>};


RatePerQuality= [ 0  300  700  1500  2500  3500 ] ;


CacheSpacePerQuality= [ 10000  11.25  26.25  56.25  93.75  131.25 ] ;


UtilityPerQuality= [ 0  0.2  0.4  0.6  0.8  1 ] ;


ObjectsPublishedByProducers=[ [ 0  0  0  0  0  0  0  1  0  0  0 ]  [ 0  0  0  0  0  0  0  1  0  0  0 ]  [ 0  0  0  0  0  0  0  1  0  0  0 ]  [ 0  0  0  0  0  0  0  1  0  0  0 ]  [ 0  0  0  0  0  0  0  1  0  0  0 ]  [ 0  0  0  0  0  0  0  1  0  0  0 ]  [ 0  0  0  0  0  0  0  1  0  0  0 ]  [ 0  0  0  0  0  0  0  1  0  0  0 ]  [ 0  0  0  0  0  0  0  1  0  0  0 ]  [ 0  0  0  0  0  0  0  1  0  0  0 ]  [ 0  0  0  0  0  0  0  1  0  0  0 ]  [ 0  0  0  0  0  0  0  1  0  0  0 ]  [ 0  0  0  0  0  0  0  1  0  0  0 ]  [ 0  0  0  0  0  0  0  1  0  0  0 ]  [ 0  0  0  0  0  0  0  1  0  0  0 ]  [ 0  0  0  0  0  0  0  1  0  0  0 ]  [ 0  0  0  0  0  0  0  1  0  0  0 ]  [ 0  0  0  0  0  0  0  1  0  0  0 ]  [ 0  0  0  0  0  0  0  1  0  0  0 ]  [ 0  0  0  0  0  0  0  1  0  0  0 ]  [ 0  0  0  0  0  0  0  1  0  0  0 ]  [ 0  0  0  0  0  0  0  1  0  0  0 ]  [ 0  0  0  0  0  0  0  1  0  0  0 ]  [ 0  0  0  0  0  0  0  1  0  0  0 ]  [ 0  0  0  0  0  0  0  1  0  0  0 ]  [ 0  0  0  0  0  0  0  1  0  0  0 ]  [ 0  0  0  0  0  0  0  1  0  0  0 ]  [ 0  0  0  0  0  0  0  1  0  0  0 ]  [ 0  0  0  0  0  0  0  1  0  0  0 ]  [ 0  0  0  0  0  0  0  1  0  0  0 ]  [ 0  0  0  0  0  0  0  1  0  0  0 ]  [ 0  0  0  0  0  0  0  1  0  0  0 ]  [ 0  0  0  0  0  0  0  1  0  0  0 ]  [ 0  0  0  0  0  0  0  1  0  0  0 ]  [ 0  0  0  0  0  0  0  1  0  0  0 ]  [ 0  0  0  0  0  0  0  1  0  0  0 ]  [ 0  0  0  0  0  0  0  1  0  0  0 ]  [ 0  0  0  0  0  0  0  1  0  0  0 ]  [ 0  0  0  0  0  0  0  1  0  0  0 ]  [ 0  0  0  0  0  0  0  1  0  0  0 ]  [ 0  0  0  0  0  0  0  1  0  0  0 ]  [ 0  0  0  0  0  0  0  1  0  0  0 ]  [ 0  0  0  0  0  0  0  1  0  0  0 ]  [ 0  0  0  0  0  0  0  1  0  0  0 ]  [ 0  0  0  0  0  0  0  1  0  0  0 ]  [ 0  0  0  0  0  0  0  1  0  0  0 ]  [ 0  0  0  0  0  0  0  1  0  0  0 ]  [ 0  0  0  0  0  0  0  1  0  0  0 ]  [ 0  0  0  0  0  0  0  1  0  0  0 ]  [ 0  0  0  0  0  0  0  1  0  0  0 ]  [ 0  0  0  0  0  0  0  1  0  0  0 ]  [ 0  0  0  0  0  0  0  1  0  0  0 ]  [ 0  0  0  0  0  0  0  1  0  0  0 ]  [ 0  0  0  0  0  0  0  1  0  0  0 ]  [ 0  0  0  0  0  0  0  1  0  0  0 ]  [ 0  0  0  0  0  0  0  1  0  0  0 ]  [ 0  0  0  0  0  0  0  1  0  0  0 ]  [ 0  0  0  0  0  0  0  1  0  0  0 ]  [ 0  0  0  0  0  0  0  1  0  0  0 ]  [ 0  0  0  0  0  0  0  1  0  0  0 ]  [ 0  0  0  0  0  0  0  1  0  0  0 ]  [ 0  0  0  0  0  0  0  1  0  0  0 ]  [ 0  0  0  0  0  0  0  1  0  0  0 ]  [ 0  0  0  0  0  0  0  1  0  0  0 ]  [ 0  0  0  0  0  0  0  1  0  0  0 ]  [ 0  0  0  0  0  0  0  1  0  0  0 ]  [ 0  0  0  0  0  0  0  1  0  0  0 ]  [ 0  0  0  0  0  0  0  1  0  0  0 ]  [ 0  0  0  0  0  0  0  1  0  0  0 ]  [ 0  0  0  0  0  0  0  1  0  0  0 ]  [ 0  0  0  0  0  0  0  1  0  0  0 ]  [ 0  0  0  0  0  0  0  1  0  0  0 ]  [ 0  0  0  0  0  0  0  1  0  0  0 ]  [ 0  0  0  0  0  0  0  1  0  0  0 ]  [ 0  0  0  0  0  0  0  1  0  0  0 ]  [ 0  0  0  0  0  0  0  1  0  0  0 ]  [ 0  0  0  0  0  0  0  1  0  0  0 ]  [ 0  0  0  0  0  0  0  1  0  0  0 ]  [ 0  0  0  0  0  0  0  1  0  0  0 ]  [ 0  0  0  0  0  0  0  1  0  0  0 ]  [ 0  0  0  0  0  0  0  1  0  0  0 ]  [ 0  0  0  0  0  0  0  1  0  0  0 ]  [ 0  0  0  0  0  0  0  1  0  0  0 ]  [ 0  0  0  0  0  0  0  1  0  0  0 ]  [ 0  0  0  0  0  0  0  1  0  0  0 ]  [ 0  0  0  0  0  0  0  1  0  0  0 ]  [ 0  0  0  0  0  0  0  1  0  0  0 ]  [ 0  0  0  0  0  0  0  1  0  0  0 ]  [ 0  0  0  0  0  0  0  1  0  0  0 ]  [ 0  0  0  0  0  0  0  1  0  0  0 ]  [ 0  0  0  0  0  0  0  1  0  0  0 ]  [ 0  0  0  0  0  0  0  1  0  0  0 ]  [ 0  0  0  0  0  0  0  1  0  0  0 ]  [ 0  0  0  0  0  0  0  1  0  0  0 ]  [ 0  0  0  0  0  0  0  1  0  0  0 ]  [ 0  0  0  0  0  0  0  1  0  0  0 ]  [ 0  0  0  0  0  0  0  1  0  0  0 ]  [ 0  0  0  0  0  0  0  1  0  0  0 ]  [ 0  0  0  0  0  0  0  1  0  0  0 ]  [ 0  0  0  0  0  0  0  1  0  0  0 ] ];

ObjRequests = {  <1,5,894>, <2,5,41>, <3,5,290>, <4,5,18>, <5,5,171>, <6,5,181>, <7,5,31>, <8,5,138>, <9,5,61>, <10,5,76>, <11,5,18>, <12,5,30>, <13,5,25>, <14,5,5>, <15,5,79>, <16,5,37>, <17,5,4>, <18,5,3>, <19,5,22>, <20,5,7>, <21,5,8>, <22,5,45>, <23,5,9>, <24,5,4>, <25,5,2>, <26,5,2>, <27,5,26>, <28,5,9>, <29,5,1>, <30,5,4>, <31,5,14>, <32,5,7>, <33,5,6>, <34,5,24>, <35,5,4>, <36,5,30>, <38,5,3>, <39,5,9>, <40,5,34>, <41,5,1>, <42,5,3>, <43,5,8>, <44,5,17>, <45,5,10>, <46,5,1>, <47,5,28>, <48,5,41>, <49,5,2>, <50,5,1>, <51,5,4>, <52,5,13>, <53,5,11>, <54,5,1>, <55,5,3>, <56,5,12>, <57,5,8>, <58,5,12>, <59,5,11>, <60,5,4>, <61,5,3>, <62,5,21>, <63,5,4>, <64,5,17>, <65,5,29>, <66,5,9>, <67,5,8>, <68,5,2>, <69,5,12>, <72,5,1>, <73,5,4>, <74,5,2>, <75,5,2>, <76,5,5>, <77,5,8>, <78,5,9>, <79,5,3>, <80,5,13>, <81,5,7>, <83,5,3>, <84,5,12>, <85,5,7>, <86,5,12>, <87,5,11>, <88,5,2>, <89,5,4>, <90,5,5>, <91,5,14>, <92,5,10>, <93,5,13>, <94,5,2>, <95,5,4>, <96,5,2>, <97,5,11>, <98,5,1>, <99,5,1>, <100,5,5>, <1,6,214>, <2,6,280>, <3,6,31>, <4,6,121>, <5,6,100>, <6,6,13>, <7,6,46>, <8,6,1>, <9,6,38>, <10,6,49>, <11,6,86>, <12,6,89>, <13,6,45>, <14,6,68>, <15,6,8>, <16,6,28>, <17,6,49>, <18,6,19>, <19,6,8>, <20,6,39>, <21,6,5>, <22,6,13>, <23,6,4>, <24,6,14>, <25,6,10>, <26,6,20>, <27,6,21>, <28,6,4>, <29,6,6>, <30,6,26>, <31,6,30>, <32,6,3>, <33,6,3>, <34,6,8>, <35,6,6>, <36,6,9>, <37,6,25>, <38,6,1>, <39,6,11>, <40,6,7>, <41,6,5>, <42,6,2>, <43,6,6>, <44,6,2>, <45,6,13>, <46,6,15>, <47,6,5>, <49,6,5>, <50,6,2>, <51,6,24>, <52,6,9>, <53,6,16>, <54,6,27>, <55,6,8>, <56,6,2>, <57,6,6>, <58,6,4>, <59,6,1>, <60,6,13>, <61,6,13>, <62,6,14>, <63,6,11>, <64,6,3>, <65,6,1>, <66,6,2>, <67,6,15>, <68,6,12>, <69,6,3>, <70,6,3>, <71,6,7>, <72,6,2>, <73,6,13>, <74,6,17>, <75,6,3>, <76,6,10>, <77,6,3>, <78,6,8>, <79,6,9>, <80,6,3>, <81,6,18>, <82,6,17>, <83,6,3>, <84,6,1>, <86,6,2>, <87,6,2>, <88,6,16>, <89,6,2>, <90,6,5>, <91,6,1>, <92,6,2>, <93,6,1>, <94,6,1>, <95,6,9>, <96,6,22>, <97,6,3>, <98,6,12>, <99,6,13>, <100,6,1>, <1,7,35>, <2,7,691>, <3,7,37>, <4,7,170>, <5,7,24>, <6,7,46>, <7,7,82>, <8,7,11>, <9,7,31>, <10,7,6>, <11,7,14>, <12,7,27>, <13,7,7>, <15,7,18>, <16,7,18>, <17,7,1>, <18,7,5>, <19,7,2>, <20,7,12>, <21,7,37>, <22,7,23>, <23,7,6>, <24,7,28>, <25,7,18>, <26,7,9>, <27,7,3>, <28,7,62>, <29,7,34>, <30,7,8>, <31,7,17>, <32,7,4>, <34,7,4>, <35,7,8>, <36,7,5>, <37,7,8>, <38,7,8>, <39,7,29>, <40,7,5>, <42,7,1>, <43,7,7>, <44,7,26>, <45,7,19>, <46,7,6>, <47,7,8>, <48,7,5>, <49,7,35>, <50,7,12>, <51,7,7>, <52,7,3>, <53,7,11>, <54,7,14>, <55,7,6>, <56,7,3>, <57,7,26>, <58,7,19>, <59,7,11>, <60,7,17>, <61,7,3>, <62,7,2>, <63,7,7>, <64,7,4>, <66,7,12>, <67,7,5>, <68,7,6>, <69,7,2>, <70,7,1>, <71,7,1>, <72,7,1>, <73,7,1>, <75,7,13>, <76,7,4>, <78,7,3>, <79,7,11>, <80,7,1>, <81,7,1>, <82,7,3>, <83,7,9>, <84,7,5>, <85,7,7>, <86,7,5>, <87,7,3>, <88,7,5>, <89,7,4>, <90,7,6>, <91,7,3>, <92,7,8>, <93,7,4>, <94,7,3>, <95,7,1>, <96,7,1>, <97,7,8>, <98,7,4>, <99,7,4>, <100,7,4>, <1,1,193>, <2,1,65>, <3,1,247>, <4,1,205>, <5,1,24>, <6,1,30>, <7,1,55>, <8,1,83>, <9,1,55>, <10,1,46>, <11,1,14>, <12,1,15>, <13,1,24>, <14,1,56>, <15,1,53>, <16,1,27>, <17,1,49>, <18,1,79>, <19,1,8>, <20,1,56>, <21,1,47>, <22,1,5>, <23,1,75>, <24,1,20>, <25,1,62>, <26,1,47>, <27,1,10>, <28,1,6>, <29,1,13>, <30,1,15>, <31,1,7>, <32,1,41>, <33,1,16>, <34,1,13>, <35,1,4>, <36,1,9>, <37,1,11>, <38,1,40>, <39,1,3>, <40,1,1>, <41,1,23>, <42,1,13>, <43,1,27>, <44,1,5>, <45,1,14>, <46,1,18>, <47,1,10>, <49,1,1>, <50,1,24>, <51,1,9>, <52,1,9>, <53,1,5>, <54,1,9>, <55,1,16>, <56,1,10>, <57,1,6>, <58,1,3>, <59,1,3>, <60,1,10>, <61,1,8>, <62,1,1>, <63,1,5>, <65,1,5>, <66,1,5>, <67,1,1>, <68,1,4>, <69,1,31>, <70,1,6>, <71,1,5>, <72,1,12>, <73,1,5>, <74,1,2>, <75,1,2>, <76,1,3>, <77,1,1>, <78,1,5>, <79,1,6>, <80,1,5>, <81,1,4>, <82,1,1>, <83,1,8>, <84,1,3>, <85,1,9>, <88,1,3>, <89,1,9>, <90,1,2>, <91,1,1>, <92,1,1>, <94,1,12>, <95,1,14>, <96,1,9>, <98,1,4>, <99,1,3>, <100,1,2>, <1,10,1069>, <2,10,138>, <3,10,139>, <4,10,44>, <5,10,133>, <6,10,133>, <7,10,95>, <8,10,36>, <9,10,86>, <10,10,61>, <11,10,87>, <12,10,60>, <13,10,75>, <14,10,34>, <15,10,27>, <16,10,9>, <17,10,42>, <18,10,10>, <19,10,77>, <20,10,13>, <21,10,16>, <22,10,31>, <23,10,22>, <24,10,40>, <25,10,7>, <26,10,14>, <27,10,33>, <28,10,12>, <29,10,26>, <30,10,24>, <31,10,5>, <32,10,21>, <33,10,41>, <34,10,6>, <35,10,51>, <36,10,13>, <37,10,12>, <38,10,6>, <39,10,5>, <40,10,2>, <41,10,23>, <42,10,46>, <43,10,2>, <44,10,4>, <45,10,11>, <46,10,7>, <47,10,2>, <48,10,13>, <49,10,5>, <50,10,9>, <52,10,22>, <53,10,2>, <54,10,2>, <55,10,11>, <56,10,13>, <57,10,2>, <58,10,1>, <59,10,15>, <61,10,8>, <62,10,8>, <63,10,10>, <64,10,16>, <65,10,5>, <66,10,15>, <67,10,8>, <68,10,14>, <69,10,1>, <70,10,12>, <71,10,13>, <72,10,7>, <73,10,11>, <74,10,7>, <75,10,5>, <76,10,1>, <77,10,18>, <78,10,11>, <79,10,7>, <80,10,2>, <81,10,1>, <82,10,10>, <83,10,6>, <84,10,7>, <86,10,6>, <87,10,10>, <88,10,2>, <89,10,9>, <90,10,7>, <91,10,5>, <92,10,2>, <93,10,4>, <94,10,1>, <95,10,3>, <96,10,2>, <97,10,1>, <98,10,1>, <99,10,2>, <100,10,9> };

MaxCacheStorageAtSingleAS= [ 131.25  131.25  131.25  131.25  131.25  131.25  131.25  131.25  131.25  131.25  131.25 ] ;

MaxCacheStorage = 1443.75 ;
SolutionGap = 0.01 ;
